p edge 155 154 65
e 1 36
e 1 28
e 1 72
e 1 106
e 2 137
e 2 66
e 3 131
e 3 19
e 4 79
e 5 57
e 5 67
e 5 19
e 6 140
e 7 65
e 7 117
e 7 72
e 8 88
e 9 113
e 10 38
e 11 153
e 12 42
e 12 145
e 12 127
e 13 23
e 13 110
e 13 20
e 13 127
e 13 88
e 14 144
e 15 101
e 16 139
e 17 29
e 18 36
e 19 90
e 19 142
e 20 47
e 20 119
e 21 139
e 21 89
e 22 83
e 24 51
e 24 87
e 24 49
e 25 130
e 26 146
e 27 35
e 28 95
e 29 133
e 29 146
e 29 99
e 30 94
e 30 115
e 30 95
e 31 39
e 31 61
e 32 56
e 32 114
e 32 137
e 33 75
e 33 48
e 34 107
e 34 83
e 35 79
e 37 68
e 37 118
e 37 111
e 37 140
e 38 77
e 40 104
e 40 136
e 40 100
e 41 123
e 41 87
e 42 59
e 43 93
e 44 111
e 45 140
e 46 101
e 46 152
e 48 89
e 48 126
e 49 108
e 49 149
e 49 103
e 50 51
e 51 85
e 51 125
e 52 135
e 53 78
e 53 126
e 53 148
e 54 109
e 54 95
e 55 88
e 56 64
e 58 69
e 58 136
e 59 141
e 60 87
e 61 136
e 62 120
e 62 135
e 62 74
e 63 152
e 63 83
e 63 135
e 66 81
e 69 112
e 70 128
e 70 134
e 71 86
e 73 132
e 74 142
e 76 100
e 77 151
e 77 135
e 79 117
e 80 96
e 81 111
e 82 83
e 84 132
e 84 122
e 86 139
e 88 129
e 90 99
e 91 145
e 92 93
e 92 113
e 92 105
e 96 143
e 96 138
e 97 101
e 98 140
e 98 108
e 100 121
e 102 124
e 102 128
e 103 147
e 103 155
e 105 138
e 105 128
e 106 111
e 107 153
e 111 129
e 116 153
e 121 127
e 122 128
e 123 134
e 128 148
e 130 134
e 134 142
e 144 148
e 150 153
e 151 154
